p cnf 7230 17
-3414 -3416 -3809 3810 0
3809 -3811 0
3814 -3815 0
-1544 -3398 3812 0
1544 -3813 0
3414 -3811 0
-3812 3813 0
-3810 3811 0
3398 -3813 0
3416 -3811 0
-3404 3809 0
3808 -3809 0
3404 -3808 0
-3406 3815 0
-3806 3807 0
3806 -3807 0
3406 -3815 0
